\ENCODING=ISO-8859-1
\Problem name: IloCplex

Minimize
 obj1: 10000 x(0)#0 + 10000 x(1)#1 + 10000 x(2)#2 + 10000 x(3)#3 + 10000 x(4)#4
       + 10000 x(5)#5 + 500 y(0)(0)#6 + 600 y(0)(1)#7 + 500 y(0)(2)#8
       + 24500 y(1)(0)#9 + 600 y(1)(1)#10 + 500 y(1)(2)#11 + 24500 y(2)(0)#12
       + 600 y(2)(1)#13 + 500 y(2)(2)#14 - 123500 y(3)(0)#15 + 600 y(3)(1)#16
       + 500 y(3)(2)#17 + 500 y(4)(0)#18 + 150600 y(4)(1)#19 + 500 y(4)(2)#20
       + 500 y(5)(0)#21 + 140600 y(5)(1)#22 + 500 y(5)(2)#23
Subject To
 c1:  x(0)#0 + y(0)(0)#6 + y(0)(1)#7 + y(0)(2)#8  = 1
 c2:  x(1)#1 + y(1)(0)#9 + y(1)(1)#10 + y(1)(2)#11  = 1
 c3:  x(2)#2 + y(2)(0)#12 + y(2)(1)#13 + y(2)(2)#14  = 1
 c4:  x(3)#3 + y(3)(0)#15 + y(3)(1)#16 + y(3)(2)#17  = 1
 c5:  x(4)#4 + y(4)(0)#18 + y(4)(1)#19 + y(4)(2)#20  = 1
 c6:  x(5)#5 + y(5)(0)#21 + y(5)(1)#22 + y(5)(2)#23  = 1
 c7:  x(0)#0 + y(0)(0)#6  = 1
 c8:  x(1)#1 + y(1)(0)#9  = 1
 c9:  x(2)#2 + y(2)(0)#12  = 1
 c10: x(3)#3 + y(3)(0)#15  = 1
 c11: x(4)#4 + y(4)(1)#19  = 1
 c12: x(5)#5 + y(5)(1)#22  = 1
 c13: y(0)(2)#8  = 0
 c14: y(1)(2)#11  = 0
 c15: y(2)(2)#14  = 0
 c16: y(3)(2)#17  = 0
 c17: y(4)(2)#20  = 0
 c18: y(4)(0)#18  = 0
 c19: y(5)(2)#23  = 0
 c20: y(5)(0)#21  = 0
 c21: y(0)(0)#6 + y(1)(0)#9 + y(2)(0)#12 + y(3)(0)#15 + y(4)(0)#18 + y(5)(0)#21
      <= 54
 c22: y(0)(1)#7 + y(1)(1)#10 + y(2)(1)#13 + y(3)(1)#16 + y(4)(1)#19
      + y(5)(1)#22 <= 40
 c23: y(0)(2)#8 + y(1)(2)#11 + y(2)(2)#14 + y(3)(2)#17 + y(4)(2)#20
      + y(5)(2)#23 <= 54
 c24: 700 x(0)#0 + 810 y(0)(0)#6 + 1080 y(0)(1)#7 + 480 y(0)(2)#8 >= 700
 c25: 600 x(1)#1 + 810 y(1)(0)#9 + 1080 y(1)(1)#10 + 480 y(1)(2)#11 >= 600
 c26: 600 x(2)#2 + 810 y(2)(0)#12 + 1080 y(2)(1)#13 + 480 y(2)(2)#14 >= 600
 c27: 1400 x(3)#3 + 810 y(3)(0)#15 + 1080 y(3)(1)#16 + 480 y(3)(2)#17 >= 1400
 c28: 300 x(4)#4 + 810 y(4)(0)#18 + 1080 y(4)(1)#19 + 480 y(4)(2)#20 >= 300
 c29: 370 x(5)#5 + 810 y(5)(0)#21 + 1080 y(5)(1)#22 + 480 y(5)(2)#23 >= 370
 c30: 22800 y(0)(2)#8 <= 0
 c31: 22800 y(1)(2)#11 <= 0
 c32: 22800 y(2)(2)#14 <= 0
 c33: 22800 y(3)(2)#17 <= 0
 c34: 22800 y(4)(2)#20 <= 0
 c35: 30000 y(4)(0)#18 <= 0
 c36: 22800 y(5)(2)#23 <= 0
 c37: 30000 y(5)(0)#21 <= 0
 c38: - 760 y(0)(2)#8 <= 500
 c39: - 760 y(1)(2)#11 <= 500
 c40: - 760 y(2)(2)#14 <= 500
 c41: - 760 y(3)(2)#17 <= 500
 c42: - 760 y(4)(2)#20 <= 500
 c43: - 1000 y(4)(0)#18 <= 500
 c44: - 760 y(5)(2)#23 <= 500
 c45: - 1000 y(5)(0)#21 <= 500
 c46: y(0)(0)#6 + y(0)(1)#7 + y(0)(2)#8 <= 1
 c47: <= 1
 c48: <= 1
 c49: y(1)(0)#9 + y(1)(1)#10 + y(1)(2)#11 <= 1
 c50: <= 1
 c51: <= 1
 c52: y(2)(0)#12 + y(2)(1)#13 + y(2)(2)#14 <= 1
 c53: <= 1
 c54: <= 1
 c55: y(3)(0)#15 + y(3)(1)#16 + y(3)(2)#17 <= 1
 c56: <= 1
 c57: <= 1
 c58: y(4)(0)#18 + y(4)(1)#19 + y(4)(2)#20 <= 1
 c59: <= 1
 c60: <= 1
 c61: y(5)(0)#21 + y(5)(1)#22 + y(5)(2)#23 <= 1
 c62: <= 1
 c63: <= 1
 c64: <= 1
 c65: y(0)(2)#8 <= 1
 c66: y(0)(0)#6 <= 1
 c67: <= 1
 c68: y(1)(2)#11 <= 1
 c69: y(1)(0)#9 <= 1
 c70: <= 1
 c71: y(2)(2)#14 <= 1
 c72: y(2)(0)#12 <= 1
 c73: <= 1
 c74: y(3)(2)#17 <= 1
 c75: y(3)(0)#15 <= 1
 c76: <= 1
 c77: y(4)(2)#20 <= 1
 c78: y(4)(0)#18 <= 1
 c79: <= 1
 c80: y(5)(2)#23 <= 1
 c81: y(5)(0)#21 <= 1
Bounds
 0 <= x(0)#0 <= 1
 0 <= x(1)#1 <= 1
 0 <= x(2)#2 <= 1
 0 <= x(3)#3 <= 1
 0 <= x(4)#4 <= 1
 0 <= x(5)#5 <= 1
 0 <= y(0)(0)#6 <= 1
 0 <= y(0)(1)#7 <= 1
 0 <= y(0)(2)#8 <= 1
 0 <= y(1)(0)#9 <= 1
 0 <= y(1)(1)#10 <= 1
 0 <= y(1)(2)#11 <= 1
 0 <= y(2)(0)#12 <= 1
 0 <= y(2)(1)#13 <= 1
 0 <= y(2)(2)#14 <= 1
 0 <= y(3)(0)#15 <= 1
 0 <= y(3)(1)#16 <= 1
 0 <= y(3)(2)#17 <= 1
 0 <= y(4)(0)#18 <= 1
 0 <= y(4)(1)#19 <= 1
 0 <= y(4)(2)#20 <= 1
 0 <= y(5)(0)#21 <= 1
 0 <= y(5)(1)#22 <= 1
 0 <= y(5)(2)#23 <= 1
Binaries
 x(0)#0  x(1)#1  x(2)#2  x(3)#3  x(4)#4  x(5)#5  y(0)(0)#6  y(0)(1)#7 
 y(0)(2)#8  y(1)(0)#9  y(1)(1)#10  y(1)(2)#11  y(2)(0)#12  y(2)(1)#13 
 y(2)(2)#14  y(3)(0)#15  y(3)(1)#16  y(3)(2)#17  y(4)(0)#18  y(4)(1)#19 
 y(4)(2)#20  y(5)(0)#21  y(5)(1)#22  y(5)(2)#23 
End
